33D32945 STP File, STP Format Version 1.0

SECTION Comments
Name "edge_n11_d2_s33"
Problem "Euclidean Steiner Tree Problem"
Remark "Generated with STPGenerator. 2 dimensions."
END

SECTION Graph
Nodes 11
END

SECTION Coordinates
DD 0 0.3079489355 0.3079489355
DD 1 0.6126976412 0.6126976412
DD 2 0.4672263043 0.4672263043
DD 3 0.5413947988 0.5413947988
DD 4 0.3004468834 0.3004468834
DD 5 0.2632564820 0.2632564820
DD 6 0.8872430967 0.8872430967
DD 7 0.7088636578 0.7088636578
DD 8 0.0528921765 0.0528921765
DD 9 0.2627286242 0.2627286242
DD 10 0.2802385941 0.2802385941
END
